NAME          COPTPROB
OBJSENSE
  MIN
ROWS
 N  __OBJ___
 L  C18     
 L  C71     
 L  C73     
 L  C115    
 L  C197    
COLUMNS
    MARKER    'MARKER'                 'INTORG'
    x6        __OBJ___  25
    x6        C197      -1
    x168      __OBJ___  57
    x168      C71       -1
    x168      C197      -1
    x233      __OBJ___  266
    x233      C18       -1
    x293      __OBJ___  271
    x293      C18       -1
    x293      C197      -1
    x391      __OBJ___  222
    x391      C73       -1
    x391      C115      -1
    x407      __OBJ___  119
    x407      C71       -1
    x407      C115      -1
    x419      __OBJ___  68
    x419      C115      -1
    x623      __OBJ___  269
    x623      C18       -1
    x623      C73       -1
    MARKER    'MARKER'                 'INTEND'
RHS
    RHS       __OBJ___  -15958
    RHS       C18       -1
    RHS       C71       -1
    RHS       C73       -1
    RHS       C115      -1
    RHS       C197      -1
BOUNDS
 UP BOUND     x6        1
 UP BOUND     x168      1
 UP BOUND     x233      1
 UP BOUND     x293      1
 UP BOUND     x391      1
 UP BOUND     x407      1
 UP BOUND     x419      1
 UP BOUND     x623      1
ENDATA
